 8, 4, 8,13,14,14,14,14,14,14,14,14,14,14,14,14,
14,14,14,14,14,14,14,14,14,14,14,14,14,14,14,14,
14,13,13,13,13,13,13,13,13, 4, 8,13,13,13,12,13,
14,14,14,14,14,14,14,14,14,14,14,14,14,14,14,14,
14,13,13,12,12,13, 8,13,13, 4, 8,11, 4,13,12,12,
14,14,14,14,14,14,14,14,14,14,14,14,14,14,14,14